SAT
-109 -64 -71 -32 -160 9 128 -59 37 -47 122 7 -69 100 -63 -70 29 164 -43 -75 58 99 -118 -134 4 60 166 -89 -138 -66 -45 11 16 140 -84 141 62 -93 148 152 67 -17 174 -106 150 19 13 86 -158 111 -78 -81 -146 -114 -101 165 108 -35 -23 -126 28 -76 65 -139 -14 49 21 33 144 107 55 -151 92 -163 -5 94 -51 12 -72 -173 -120 79 -155 87 -22 169 -171 73 -38 137 154 162 -50 61 -135 57 -18 142 112 -116 95 -170 -105 10 52 121 136 -90 -53 133 -102 44 97 168 157 77 -26 -41 15 48 -54 -2 80 74 -147 -88 -36 98 -6 -34 129 -1 127 -30 124 -27 -153 -149 -40 -131 83 -143 85 68 130 -115 159 31 -113 -42 20 -123 175 -167 125 3 -25 -82 96 -156 104 -132 -56 -46 -110 -39 -145 8 -117 -161 -119 103 -91 -24 -172 0
